100
32
3
4
1
7
7
4
12
23
3
8
8
6
4
4
12
28
25
19
21
6
2
9
17
1
2
1
8
1
2
2
4
1
21
2
3
18
3
1
4
1
5
1
3
3
2
20
17
3
5
18
2
1
1
18
1
6
2
4
2
2
3
1
3
1
2
2
19
18
5
1
3
3
3
17
2
2
3
1
3
20
4
1
19
2
7
3
1
15
1
4
3
2
3
3
3
2
1
2
17
6